TCS_Benchmarks/redos_fix/corpus1_output_distinct_84_83_24_0.smt2
(set-logic QF_S)
(declare-const x String)
(assert (str.in.re x (re.inter  (re.++ (re.* (re.union (re.range "\u{00}" "\u{09}") (re.range "\u{0b}" "\u{0c}") (re.range "\u{0e}" "\u{84}") (re.range "\u{86}" "\u{ff}")) ) (re.* (re.union (re.range "\u{00}" "\u{09}") (re.range "\u{0b}" "\u{0c}") (re.range "\u{0e}" "\u{84}") (re.range "\u{86}" "\u{ff}")) ))  (re.++ (re.* (re.union (re.range "\u{00}" "\u{09}") (re.range "\u{0b}" "\u{0c}") (re.range "\u{0e}" "\u{84}") (re.range "\u{86}" "\u{ff}")) ) (re.++  (re.++  (str.to.re "\u{74}") (re.++  (str.to.re "\u{68}") (re.++  (str.to.re "\u{75}") (re.++  (str.to.re "\u{6d}") (re.++  (str.to.re "\u{62}") (re.++  (str.to.re "\u{6e}") (re.++  (str.to.re "\u{61}") (re.++  (str.to.re "\u{69}") (re.++  (str.to.re "\u{6c}") (re.++  (str.to.re "\u{3a}") (re.++ (re.* (re.union (re.range "\u{09}" "\u{0d}") (re.range "\u{20}" "\u{20}") (re.range "\u{85}" "\u{85}") (re.range "\u{a0}" "\u{a0}")) ) (re.++  (str.to.re "\u{27}") (re.++  (re.++  (str.to.re "\u{68}") (re.++  (str.to.re "\u{74}") (re.++  (str.to.re "\u{74}") (re.++  (str.to.re "\u{70}") (re.++  (str.to.re "\u{3a}") (re.++  (str.to.re "\u{2f}") (re.++  (str.to.re "\u{2f}") (re.++ (re.+ (re.comp  (str.to.re "\u{2f}")) ) (re.++  (str.to.re "\u{2f}") (re.++  (str.to.re "\u{54}") (re.++  (str.to.re "\u{68}") (re.++  (str.to.re "\u{75}") (re.++  (str.to.re "\u{6d}") (re.++  (str.to.re "\u{62}") (re.++  (str.to.re "\u{6e}") (re.++  (str.to.re "\u{61}") (re.++  (str.to.re "\u{69}") (re.++  (str.to.re "\u{6c}") (re.++  (str.to.re "\u{53}") (re.++  (str.to.re "\u{65}") (re.++  (str.to.re "\u{72}") (re.++  (str.to.re "\u{76}") (re.++  (str.to.re "\u{65}") (re.++  (str.to.re "\u{72}") (re.++  (str.to.re "\u{32}") (re.+ (re.comp  (str.to.re "\u{27}")) ))))))))))))))))))))))))))  (str.to.re "\u{27}")))))))))))))) (re.* (re.union (re.range "\u{00}" "\u{09}") (re.range "\u{0b}" "\u{0c}") (re.range "\u{0e}" "\u{84}") (re.range "\u{86}" "\u{ff}")) ))) )))
(check-sat)
(get-model)