TCS_Benchmarks/redos_fix/corpus1_output_distinct_84_83_24_0.txt
(.*)(.*)
(.*)(thumbnail:\s*'(http:\/\/[^\/]+\/ThumbnailServer2[^']+)')(.*)